p tw 20 114
0 1
0 2
0 3
0 16
0 5
0 13
0 7
0 15
0 4
0 18
0 12
0 6
0 17
0 8
1 2
1 3
1 6
1 11
1 12
1 13
1 8
1 14
1 5
1 16
1 19
1 17
2 6
2 7
2 10
2 11
2 12
2 15
2 3
2 13
2 18
2 8
2 5
2 16
3 4
3 5
3 6
3 16
3 13
3 12
3 18
3 7
3 17
3 11
3 19
3 15
3 14
3 8
4 5
4 8
4 9
4 12
4 13
4 15
4 14
4 19
4 16
4 18
5 9
5 14
5 13
5 7
5 8
5 16
5 17
5 15
6 7
6 10
6 17
6 11
6 16
6 15
6 19
6 18
7 15
7 11
7 18
7 17
7 8
7 19
8 9
8 14
8 12
8 19
8 15
8 17
9 14
9 13
9 19
10 11
10 15
10 17
10 19
11 12
11 13
11 19
11 17
12 13
12 15
12 19
12 17
13 19
14 19
14 16
15 18
15 16
15 17
16 18
16 17
17 18
